c Random Network
p max    10      20
n         1  s
n        10  t
a       5       3      38
a       5       9      11
a       3       1      26
a       2       9      26
a       2       3       4
a       4      10      12
a       3       6      10
a       1       8      46
a       2      10      13
a       8       5      11
a       6       8      18
a       4       1      32
a       9       1      41
a       7       4       2
a       3       2      12
a       2       4      23
a       9       7       2
a       8       1       9
a       1       9      38
a       9       5      45
